WARNING: for repeatability, setting FPU to use double precision
============================[ Problem Statistics ]=============================
|                                                                             |
|  Number of variables:           100                                         |
|  Number of clauses:             449                                         |
|  Parse time:                   0.00 s                                       |
|  Simplification time:          0.00 s                                       |
|                                                                             |
============================[ Search Statistics ]==============================
| Conflicts |          ORIGINAL         |          LEARNT          | Progress |
|           |    Vars  Clauses Literals |    Limit  Clauses Lit/Cl |          |
===============================================================================
|       100 |     100      449     1347 |      164      100      8 |  0.010 % |
===============================================================================
restarts              : 3
conflicts             : 210            (69814 /sec)
decisions             : 276            (0.00 % random) (91755 /sec)
propagations          : 5215           (1733710 /sec)
conflict literals     : 1555           (17.42 % deleted)
Memory used           : 13.00 MB
CPU time              : 0.003008 s

SATISFIABLE
